 &control
    calculation='scf',
    restart_mode='from_scratch',
    prefix='Si_pbe',
    pseudo_dir = '/home/nvarini/espresso_hdf5/espresso/pseudo',
    outdir='/home/nvarini/espresso_hdf5/espresso/tempdir'
 /
 &system
    ibrav = 2, celldm(1) =10.35, nat=  2, ntyp= 1,
    ecutwfc = 20.0
    noncolin=.true.,
    lspinorb=.true.,
 /
 &electrons
    mixing_beta = 0.7
    conv_thr = 1.0d-10
 /
ATOMIC_SPECIES
 Si   28.0855  Si.rel-pbe-rrkj.UPF
ATOMIC_POSITIONS (alat)
 Si  0.00 0.00 0.00
 Si  0.25 0.25 0.25
K_POINTS AUTOMATIC
2 2 2 1 1 1
