phonons of AlAs
 &inputph
  tr2_ph=1.0d-12,
  prefix='alas',
  ldisp=.true.,
  nq1=4, nq2=4, nq3=4
  start_q=3
  last_q=3
  start_irr=3
  last_irr=3
  max_seconds=0.5,
  recover=.true.,
  amass(1)=26.98,
  amass(2)=74.92,
  outdir="/home/nvarini/espresso_hdf5/espresso/tempdir/3.3",
  fildyn='alas.dyn',
 /
