 &input
   fildyn='alas.dyn', zasr='simple', flfrc='alas.444.fc'
 /
