phonons of AlAs
 &inputph
  tr2_ph=1.0d-12,
  prefix='alas',
  ldisp=.true.,
  nq1=4, nq2=4, nq3=4
  amass(1)=26.98,
  amass(2)=74.92,
  recover=.true.,
  outdir='/home/nvarini/espresso_hdf5/espresso/tempdir/',
  fildyn='alas.dyn',
 /
