phonons of AlAs
 &inputph
  tr2_ph=1.0d-12,
  prefix='alas',
  ldisp=.true.,
  nq1=4, nq2=4, nq3=4
  start_q=5
  last_q=5
  start_irr=2
  last_irr=2
  recover=.true.,
  amass(1)=26.98,
  amass(2)=74.92,
  outdir="/home/nvarini/espresso_hdf5/espresso/tempdir/5.2",
  fildyn='alas.dyn',
 /
