phonons of Ni at X
 &inputph
  tr2_ph=1.0d-14,
  prefix='ni_so',
  fildyn='nix.dyn',
  outdir='/home/nvarini/espresso_hdf5/espresso/tempdir/'
 /
0.0 0.0 1.0
