Pt
Pt
 &control
    calculation = 'scf'
    restart_mode='from_scratch',
    prefix='Pt_pbe',
    tprnfor = .true.,
    pseudo_dir = '/home/nvarini/espresso_hdf5/espresso/pseudo/',
    outdir='/home/nvarini/espresso_hdf5/espresso/tempdir/'
 /
 &system
    ibrav=  2, celldm(1) =7.55, nat=  1, ntyp= 1,
    lspinorb=.true.,
    noncolin=.true.,
    starting_magnetization=0.0,
    occupations='smearing',
    degauss=0.02,
    smearing='mp',
    ecutwfc =30.0,
    ecutrho =300.0,
 /
 &electrons
    mixing_beta = 0.7,
    conv_thr =  1.0d-12
 /
ATOMIC_SPECIES
Pt  0.0    Pt.rel-pbe-n-rrkjus.UPF
ATOMIC_POSITIONS
Pt  0.0000000   0.00000000   0.0
K_POINTS AUTOMATIC
2 2 2 1 1 1
