 &CONTROL
   calculation =   "vc-relax"   ,
   restart_mode = 'from_scratch' ,
   outdir='/home/nvarini/espresso_hdf5/espresso/tempdir/' , 
   pseudo_dir = '/home/nvarini/espresso_hdf5/espresso/pseudo' ,
   disk_io = 'default' ,
   verbosity = 'default' ,
   tstress = .true. ,
   tprnfor = .true. ,
   nstep =  55  ,
               etot_conv_thr = 1.0E-5  ,
               forc_conv_thr = 1.0D-4 ,
                      iprint = 1 ,
                 max_seconds = 6000 ,
                          dt = 150 ,
 /
 &SYSTEM
   ibrav = 0 ,
   A = 3.70971016 ,
   ! B = 3.70971016 ,
   ! C = 3.70971016 ,
   ! cosAB = 0.49517470 ,
   ! cosAC = 0.49517470 ,
   ! cosBC = 0.49517470 ,
                         nat  =  2 , 
                        ntyp  =  1 , 
                     ecutwfc  =  25.0 ,
                     ecutrho  =  100.0 , 
                        nbnd  =  9 , 
                 occupations  =  'smearing' ,
                    smearing  =  'mp' ,
                     degauss  =  0.005 ,
                       nspin  =  1 , 
                  lda_plus_u  =  .false. , 
 /
 &ELECTRONS
            electron_maxstep  =  70  , 
                    conv_thr  =  1.0d-7  , 
             diagonalization   =   'david'   ,  
 /
 &IONS
 /
 &CELL
   cell_dynamics = 'damp-w' ,
   press = 500.00 ,
   wmass =  0.00700000  ,
 /
CELL_PARAMETERS 
    0.58012956  0.00000000  0.81452422
   -0.29006459  0.50240689  0.81452422
   -0.29006459 -0.50240689  0.81452422
ATOMIC_SPECIES
   As   74.90000  As.pz-bhs.UPF
ATOMIC_POSITIONS crystal 
As    0.290010       0.290010       0.290010
As   -0.290010      -0.290010      -0.290010
K_POINTS automatic 
  4 4 4   1 1 1 
