phonons of si at X
 &inputph
  tr2_ph=1.0d-14,
  prefix='silicon',
  amass(1)=28.08,
  outdir='./tempdir_hdf5/',
  fildyn='si.dynX',
 /
1.0 0.0 0.0
