Anharm at Gamma
&inputph
   prefix = 'silicon',
   fildrho = 'si.drho_G',
   fild0rho = 'si.drho_G',
   amass(1) = 28.0855,
   outdir = '/home/nvarini/espresso_hdf5/espresso/tempdir/',
   fildyn = 'si.anh_G',
 /
0.0 0.0 0.0
