Anharm at the X-point
&inputph
   prefix = 'silicon',
   fildrho = 'si.drho_X',
   fild0rho = 'si.drho_G',
   amass(1) = 28.0855,
   outdir = '/home/nvarini/espresso_hdf5/espresso/tempdir/',
   fildyn = 'si.anh_X',
 /
0.0 0.0 1.0
