 &control
    calculation = 'scf'
    restart_mode='from_scratch',
    prefix='silicon',
    tstress = .true.
    tprnfor = .true.
    pseudo_dir = '/home/nvarini/espresso_hdf5/espresso/pseudo/',
    outdir='/home/nvarini/espresso_hdf5/espresso/tempdir/'
 /
 &system
    ibrav=  2, celldm(1) =10.20, nat=  2, ntyp= 1,
    ecutwfc =24.0,
 /
 &electrons
    mixing_beta = 0.7
    conv_thr =  1.0d-8
 /
ATOMIC_SPECIES
 Si  28.086  Si.pz-vbc.UPF
ATOMIC_POSITIONS
 Si 0.00 0.00 0.00
 Si 0.25 0.25 0.25
K_POINTS {automatic}
4 4 4  1 1 1
