 &control
    calculation='scf',
    restart_mode='from_scratch',
    pseudo_dir='/home/nvarini/espresso_hdf5/espresso/pseudo/'
    outdir='/home/nvarini/espresso_hdf5/espresso/tempdir/'
 /
 &system
   ibrav=1,
   celldm(1)=14.0,
   nat=1,
   ntyp=1,
   nbnd=6,
   nosym=.true.,
   ecutwfc=27.0,
   ecutrho=300.0,
   occupations='from_input',
   nspin=2,
   starting_magnetization(1)=0.5d0,
   one_atom_occupations=.true.,
 /
 &electrons
   mixing_beta=0.25,
   conv_thr=1.0E-8,
   startingwfc='atomic'
 /
ATOMIC_SPECIES
Ni     0.0   Ni.pbe-nd-rrkjus.UPF
ATOMIC_POSITIONS
Ni   0.000000000   0.000000000   0.000000000
K_POINTS (gamma)
OCCUPATIONS
1.0 1.0 1.0 1.0 1.0 1.0
1.0 0.6 0.6 0.6 0.6 0.6
