phonons of Au at Gamma
 &inputph
  tr2_ph=1.0d-14,
  prefix='gold',
  fildyn='Aug.dyn',
  outdir='/home/nvarini/espresso_hdf5/espresso/tempdir/'
 /
0.0 0.0 0.0
