phonons of AlAs
 &inputph
  tr2_ph=1.0d-12,
  prefix='alas',
  ldisp=.true.,
  lqdir=.true.,
  nq1=4, nq2=4, nq3=4
  start_q=5
  last_q=5
  start_irr=6
  last_irr=6
  recover=.true.,
  low_directory_check=.true.
  outdir="/home/nvarini/espresso_hdf5/espresso/tempdir/5.6",
  fildyn='alas.dyn.xml',
 /
