phonons of AlAs
 &inputph
  tr2_ph=1.0d-12,
  prefix='alas',
  ldisp=.true.,
  lqdir=.true.,
  nq1=4, nq2=4, nq3=4
  start_q=7
  last_q=7
  start_irr=4
  last_irr=4
  recover=.true.,
  low_directory_check=.true.
  outdir="/home/nvarini/espresso_hdf5/espresso/tempdir/7.4",
  fildyn='alas.dyn.xml',
 /
