phonons of C at Gamma
 &inputph
  tr2_ph=1.0d-14,
  epsil=.true.,
  zue=.true.
  prefix='carbon',
  fildyn='Cg.dyn',
  outdir='/home/nvarini/espresso_hdf5/espresso/tempdir/'
 /
0.0 0.0 0.0
