&projwfc
    prefix='silicon',
    outdir='./tempdir/'
/
