vibrations of ch4, only modes of A1 symmetry
 &inputph
  tr2_ph=4.0d-17,
  prefix='ch4',
  outdir='/home/nvarini/espresso_hdf5/espresso/tempdir',
  nogg=.true.
  start_irr=1,
  last_irr=1,
  ldiag=.true.,
  fildyn='ch4_a1.dyn',
 /
0.0 0.0 0.0
