ch4
ch4 molecule in a cubic box
 &control
    calculation = 'scf',
    restart_mode='from_scratch',
    prefix='ch4',
    tprnfor = .true.,
    pseudo_dir = '/home/nvarini/espresso_hdf5/espresso/pseudo',
    outdir='/home/nvarini/espresso_hdf5/espresso/tempdir'
 /
 &system
    ibrav=  1,
    celldm(1) =15.0,
    nat=5,
    ntyp= 2,
    ecutwfc =25.0,
    ecutrho =300.0,
 /
 &electrons
    mixing_beta = 0.5,
    conv_thr =  1.0d-10
 /
ATOMIC_SPECIES
 H  0.0   H.pz-kjpaw.UPF
 C  0.0   C.pz-kjpaw.UPF
ATOMIC_POSITIONS (alat)
H        0.080728893   0.080728893   0.080728893
H       -0.080728893  -0.080728893   0.080728893
H        0.080728893  -0.080728893  -0.080728893
H       -0.080728893   0.080728893  -0.080728893
C        0.000000000   0.000000000   0.000000000
K_POINTS
1
0.0 0.0 0.0 1.0
