Electron-phonon coefficients for Al
 &inputph
  tr2_ph=1.0d-10,
  prefix='al',
  fildvscf='aldv',
  amass(1)=26.98,
  outdir='/home/nvarini/espresso_hdf5/espresso/tempdir/',
  fildyn='al.dyn',
  start_q=8
  last_q=8
  electron_phonon='interpolated',
  el_ph_sigma=0.005, 
  el_ph_nsigma=10,
  trans=.true.,
  ldisp=.true.
  nq1=4, nq2=4, nq3=4
 /
