&control
   calculation = "scf"
   restart_mode='from_scratch',
   prefix='graphite',
   tstress = .true.
   tprnfor = .true.
   pseudo_dir = '/home/nvarini/espresso_hdf5/espresso/pseudo',
   outdir='/home/nvarini/espresso_hdf5/espresso/tempdir'
   verbosity = 'high'

   forc_conv_thr = 1.0D-3

/

&system
    ibrav           = 4 
    celldm(1)       = 4.6311700000
    celldm(3)       = 2.7264000000
    
    nat             = 4 
    ntyp            = 1

    occupations     = 'fixed'
    smearing        = 'methfessel-paxton'
    degauss         = 0.02

    ecutwfc         = 30.12969660
    ecutrho         = 180.77817960

    input_dft  	    = 'vdW-DF'
/

&electrons
    conv_thr        = 1.0d-8
/

ATOMIC_SPECIES
C   12.00   C.pbe-rrkjus.UPF

ATOMIC_POSITIONS {alat}
C      0.0000000000 0.0000000000 0.0000000000 
C      0.0000000000 0.5773502692 0.0000000000
C      0.0000000000 0.0000000000 1.3632000000
C      0.5000000000 0.2886751346 1.3632000000

K_POINTS automatic
4 4 4 1 1 1
