&control
   calculation = 'scf'
   restart_mode='from_scratch',
   prefix='water_vdw',
   tstress = .true.
   tprnfor = .true.
   pseudo_dir = '/home/nvarini/espresso_hdf5/espresso/pseudo/',
   outdir='/home/nvarini/espresso_hdf5/espresso/tempdir/'
   verbosity = 'high'
/

&system
    ibrav           = 8
    celldm(1)       = 15.05
    celldm(2)       = 0.954545454545455
    celldm(3)       = 1.22727272727273
    nat             = 6
    ntyp            = 2
    occupations     = 'fixed'
    ecutwfc         = 29.80099530
    ecutrho         = 178.80597180
    input_dft       = 'vdW-DF'
/

&electrons
    conv_thr        = 1.0d-8
/

ATOMIC_SPECIES
   O   15.9994    O.pbe-rrkjus.UPF
   H   1.00794    H.pbe-rrkjus.UPF
 
ATOMIC_POSITIONS {alat}
O     0.0000000   0.0016540  -0.0072484  
H     0.0000000   0.0981485  -0.0826521  
H     0.0000000   0.0490883   0.1065556  
O     0.0000000   0.1117595   0.3550478  
H    -0.0975766   0.0656956   0.4133167  
H     0.0975766   0.0656956   0.4133167  

K_POINTS gamma

