phonons of AlAs at Gamma
 &inputph
  tr2_ph=1.0d-12,
  prefix='alas',
  epsil=.true.,
  trans=.true.,
  lraman=.true.,
  elop=.true.,
  zeu=.true.,
  zue=.true.,
  recover=.true.
  amass(1)=26.98,
  amass(2)=74.92,
  outdir='/home/nvarini/espresso_hdf5/espresso/tempdir/',
  fildyn='alas.dynG',
  fildrho='alas.drho',
 /
0.0 0.0 0.0
