normal modes for sih4
 &inputph
  tr2_ph=1.0d-14,
  prefix='sih4',
  amass(1)=28.086,
  amass(2)=1.008,
  outdir='/home/nvarini/espresso_hdf5/espresso/tempdir/',
  epsil=.true.,
  trans=.true., asr=.true.
  raman=.false.
  fildyn='sih4.dyn'
 /
 0.0 0.0 0.0
