 &input fildyn='sih4.dyn', asr='zero-dim' /
