&CONTROL
                 calculation = 'scf' ,
                restart_mode = 'from_scratch' ,
                      outdir = '/home/nvarini/espresso_hdf5/espresso/tempdir/' ,
                  pseudo_dir = '/home/nvarini/espresso_hdf5/espresso/PW/examples/EXX_example/Pseudo/',
                      prefix = 'n2',
                     disk_io = 'minimal' ,
                      iprint = 1
                     tprnfor = .true.
 /
 &SYSTEM
                       ibrav = 1,
                   celldm(1) = 12.0,
                         nat = 2,
                        ntyp = 1,
                     ecutwfc = 80 ,
                        input_dft='gaupbe'
                        nbnd = 8
            exxdiv_treatment = 'none'
                    ecutvcut = 0.0
       x_gamma_extrapolation = .FALSE.
 /
 &ELECTRONS
                    conv_thr = 1.d-4
 /
 &IONS
 /
ATOMIC_SPECIES
  N 16.0  NPBE1nlcc.RRKJ3
ATOMIC_POSITIONS angstrom 
  N  0.3169  0.3169  0.3169
  N -0.3169 -0.3169 -0.3169
K_POINTS gamma
#automatic 
#1 1 1  0 0 0 
