phonons of Cu at X
 &inputph
  tr2_ph=1.0d-14,
  prefix='copper',
  modenum=2,
  recover=.true.,
  fildyn='Cux.dyn',
  outdir='/home/nvarini/espresso_hdf5/espresso/tempdir/'
 /
1.0 0.0 0.0
