phonons of Cu at Gamma
 &inputph
  tr2_ph=1.0d-14,
  prefix='copper',
  max_seconds=5,
  fildyn='Cug.dyn',
  outdir='/home/nvarini/espresso_hdf5/espresso/tempdir/'
 /
0.0 0.0 0.0
