phonons of Si at Gamma
 &inputph
  tr2_ph=1.0d-14,
  prefix='silicon',
  epsil=.true.,
  recover=.true.,
  amass(1)=28.08,
  outdir='/home/nvarini/espresso_hdf5/espresso/tempdir/',
  fildyn='si.dynG',
 /
0.0 0.0 0.0
