Fe
Iron
 &control
    calculation='bands'
    pseudo_dir = '/home/nvarini/espresso_hdf5/espresso/pseudo/',
    outdir='/home/nvarini/espresso_hdf5/espresso/tempdir/',
    prefix='fe'
 /
 &system
    ibrav = 3, celldm(1) =5.217, nat= 1, ntyp= 1,
    ecutwfc = 25.0,ecutrho = 200.0,
    report=1, nbnd = 16
    noncolin = .true.
    starting_magnetization(1) = 0.5
    angle1(1) = 90.0
    angle2(1) =  0.0
 /
 &electrons
    conv_thr = 1.0e-8
    mixing_beta = 0.2
 /
ATOMIC_SPECIES
 Fe 55.847 Fe.pz-nd-rrkjus.UPF
ATOMIC_POSITIONS
 Fe 0.0 0.0 0.0
K_POINTS
 28
   0.0 0.0 0.0 1.0
   0.0 0.0 0.1 1.0
   0.0 0.0 0.2 1.0
   0.0 0.0 0.3 1.0
   0.0 0.0 0.4 1.0
   0.0 0.0 0.5 1.0
   0.0 0.0 0.6 1.0
   0.0 0.0 0.7 1.0
   0.0 0.0 0.8 1.0
   0.0 0.0 0.9 1.0
   0.0 0.0 1.0 1.0
   0.0 0.0 0.0 1.0
   0.0 0.1 0.1 1.0
   0.0 0.2 0.2 1.0
   0.0 0.3 0.3 1.0
   0.0 0.4 0.4 1.0
   0.0 0.5 0.5 1.0
   0.0 0.6 0.6 1.0
   0.0 0.7 0.7 1.0
   0.0 0.8 0.8 1.0
   0.0 0.9 0.9 1.0
   0.0 1.0 1.0 1.0
   0.0 0.0 0.0 1.0
   0.1 0.1 0.1 1.0
   0.2 0.2 0.2 1.0
   0.3 0.3 0.3 1.0
   0.4 0.4 0.4 1.0
   0.5 0.5 0.5 1.0
