 &input
  zasr='simple',  fildyn='al.disp.dyn', flfrc='Al444.fc'
 /
